local_stuff/sygus_stuff/sygus_inv_oai/sygus_cvc5/cvc_output_1sec/115.c.out
STDOUT:
(
(define-fun inv-f ((sn Int) (x Int) (tmp Int) (sn_0 Int) (sn_1 Int) (sn_2 Int) (sn_3 Int) (x_0 Int) (x_1 Int) (x_2 Int) (x_3 Int)) Bool (and (= sn x) (or (not (= x x_2)) (= sn_2 (- 1)) (= sn_2 x_2) (not (= x sn_2)))))
)
